p cnf 139 310
1 0
-2 0
-3 0
-4 0
-5 0
-6 0
-7 0
-8 0
-9 0
-10 0
-11 0
1 -12 0
-1 12 0
13 14 0
15 14 0
-13 -15 -14 0
-2 14 -16 0
2 -14 -16 0
16 -14 -2 0
2 14 16 0
-16 0
1 17 0
18 17 0
-1 -18 -17 0
-13 17 -19 0
13 -17 -19 0
19 -17 -13 0
13 17 19 0
-19 0
20 21 0
22 21 0
-20 -22 -21 0
-3 21 -23 0
3 -21 -23 0
23 -21 -3 0
3 21 23 0
-23 0
24 25 0
26 25 0
-24 -26 -25 0
-20 25 -27 0
20 -25 -27 0
27 -25 -20 0
20 25 27 0
-27 0
28 29 0
22 29 0
26 29 0
-28 -22 -26 -29 0
-24 29 -30 0
24 -29 -30 0
30 -29 -24 0
24 29 30 0
-30 0
24 31 0
32 31 0
-24 -32 -31 0
-4 31 -33 0
4 -31 -33 0
33 -31 -4 0
4 31 33 0
-33 0
34 35 0
36 35 0
-34 -36 -35 0
-5 35 -37 0
5 -35 -37 0
37 -35 -5 0
5 35 37 0
-37 0
38 39 0
40 39 0
-38 -40 -39 0
-34 39 -41 0
34 -39 -41 0
41 -39 -34 0
34 39 41 0
-41 0
42 43 0
44 43 0
-42 -44 -43 0
-38 43 -45 0
38 -43 -45 0
45 -43 -38 0
38 43 45 0
-45 0
46 47 0
44 47 0
-44 -46 -47 0
-42 47 -48 0
42 -47 -48 0
48 -47 -42 0
42 47 48 0
-48 0
49 50 0
51 50 0
-49 -51 -50 0
-6 50 -52 0
6 -50 -52 0
52 -50 -6 0
6 50 52 0
-52 0
53 54 0
55 54 0
-53 -55 -54 0
-49 54 -56 0
49 -54 -56 0
56 -54 -49 0
49 54 56 0
-56 0
57 58 0
59 58 0
-57 -59 -58 0
-53 58 -60 0
53 -58 -60 0
60 -58 -53 0
53 58 60 0
-60 0
61 62 0
63 62 0
-61 -63 -62 0
-57 62 -64 0
57 -62 -64 0
64 -62 -57 0
57 62 64 0
-64 0
65 66 0
67 66 0
-65 -67 -66 0
-61 66 -68 0
61 -66 -68 0
68 -66 -61 0
61 66 68 0
-68 0
69 70 0
71 70 0
-69 -71 -70 0
-65 70 -72 0
65 -70 -72 0
72 -70 -65 0
65 70 72 0
-72 0
73 74 0
75 74 0
-73 -75 -74 0
-69 74 -76 0
69 -74 -76 0
76 -74 -69 0
69 74 76 0
-76 0
67 77 0
71 77 0
75 77 0
78 77 0
-79 0
-73 77 -80 0
73 -77 -80 0
80 -77 -73 0
73 77 80 0
-80 0
81 82 0
83 82 0
-81 -83 -82 0
-7 82 -84 0
7 -82 -84 0
84 -82 -7 0
7 82 84 0
-84 0
65 85 0
86 85 0
-65 -86 -85 0
-81 85 -87 0
81 -85 -87 0
87 -85 -81 0
81 85 87 0
-87 0
88 89 0
90 89 0
-88 -90 -89 0
-8 89 -91 0
8 -89 -91 0
91 -89 -8 0
8 89 91 0
-91 0
92 93 0
94 93 0
-92 -94 -93 0
-88 93 -95 0
88 -93 -95 0
95 -93 -88 0
88 93 95 0
-95 0
96 97 0
98 97 0
-96 -98 -97 0
-92 97 -99 0
92 -97 -99 0
99 -97 -92 0
92 97 99 0
-99 0
100 101 0
102 101 0
-100 -102 -101 0
-96 101 -103 0
96 -101 -103 0
103 -101 -96 0
96 101 103 0
-103 0
104 105 0
106 105 0
-104 -106 -105 0
-100 105 -107 0
100 -105 -107 0
107 -105 -100 0
100 105 107 0
-107 0
108 109 0
110 109 0
-108 -110 -109 0
-104 109 -111 0
104 -109 -111 0
111 -109 -104 0
104 109 111 0
-111 0
102 112 0
106 112 0
110 112 0
113 112 0
-114 0
-108 112 -115 0
108 -112 -115 0
115 -112 -108 0
108 112 115 0
-115 0
116 117 0
118 117 0
-116 -118 -117 0
-9 117 -119 0
9 -117 -119 0
119 -117 -9 0
9 117 119 0
-119 0
116 -120 0
-116 120 0
7 121 0
122 121 0
-7 -122 -121 0
-10 121 -123 0
10 -121 -123 0
123 -121 -10 0
10 121 123 0
-123 0
124 125 0
126 125 0
-124 -126 -125 0
-11 125 -127 0
11 -125 -127 0
127 -125 -11 0
11 125 127 0
-127 0
9 128 0
129 128 0
-9 -129 -128 0
-124 128 -130 0
124 -128 -130 0
130 -128 -124 0
124 128 130 0
-130 0
12 -131 0
15 -131 0
-131 -18 0
22 -131 0
26 -131 0
-131 -28 0
-131 -32 0
-131 -36 0
-131 -40 0
-131 -44 0
46 -131 0
-131 -51 0
-131 -55 0
-131 -59 0
-131 -63 0
-131 -67 0
-131 -71 0
-131 -75 0
78 -131 0
-131 -83 0
86 -131 0
-131 -90 0
94 -131 0
-131 -98 0
-131 -102 0
-131 -106 0
110 -131 0
113 -131 0
118 -131 0
-131 -120 0
122 -131 0
126 -131 0
-131 -129 0
131 0
-132 0
-133 0
-134 0
-135 0
-136 0
-137 0
-138 0
-139 0
